
-11.72
-11.44
-11.16
-11.12
-11.04
-10.96
-10.8
-10.76
-10.72
-10.56
-10.36
-10.32
-10.2
-10.12
-10.04
-10.04
-9.92
-9.92
-9.92
-9.88
-1.6
-1.16
-0.76
-0.76
-0.76
-0.76
-0.76
-0.76
-0.76
-0.76
-0.76
-0.76
-0.76
-0.4
-0.4
-0.4
-0.4
-0.4
-0.4
-0.4